\ SCIP STATISTICS
\   Problem name     : model
\   Variables        : 9 (0 binary, 0 integer, 0 implicit integer, 9 continuous)
\   Constraints      : 2
Maximize
 Obj: +1 f00 +1 f01 +1 f02 +1 f10 +1 f11 +1 f12 +1 f20 +1 f21 +1 f22
Subject to
 c1: +1 f10 +1 f20 -1 f01 -1 f02 = +0
 c2: +1 f01 +1 f21 -1 f10 -1 f12 = +0
Bounds
 0 <= f00 <= 47.0098345265938
 0 <= f01 <= 43.1932604952525
 0 <= f02 <= 6.47621135246984
 0 <= f10 <= 15.5642132698819
 0 <= f11 <= 32.7934678428933
 0 <= f12 <= 14.5455326092461
 0 <= f20 <= 41.4313170531071
 0 <= f21 <= 5.02211220420856
 0 <= f22 <= 10.3217848673608
End
